benchmarks/VRPTW/TSPTW/solution/n40w60.005.txt.solution
1 21 3 5 19 26 38 18 2 37 29 25 16 12 24 28 4 7 6 10 30 15 8 40 14 31 32 34 22 23 9 27 17 36 39 20 11 33 13 41 35 
328
